c --- [ banner ] -------------------------------------------------------------
c 
c CaDiCaL Radically Simplified CDCL SAT Solver
c Copyright (c) 2016-2021 A. Biere, M. Fleury, N. Froleyks
c 
c Version 1.5.2 a5f15211db36c3956764e18194dd5bd63bf3b5e6
c g++ (GCC) 9.3.0 -Wall -Wextra -O3 -DNDEBUG
c Fri Oct 21 01:27:37 EDT 2022 Linux gra-login3 3.10.0-1160.66.1.el7.x86_64 x86_64
c 
c --- [ limit ] --------------------------------------------------------------
c 
c setting conflict limit to 200000 conflicts (due to '200000')
c 
c --- [ parsing input ] ------------------------------------------------------
c 
c reading DIMACS file from '33.cubes258.adj'
c opening file to read '33.cubes258.adj'
c found 'p cnf 6160 1595471' header
c parsed 1595471 clauses in 17.77 seconds process time
c closing file '33.cubes258.adj'
c after reading 1457566747 bytes 1390.0 MB
c 
c --- [ options ] ------------------------------------------------------------
c 
c all options are set to their default value
c 
c --- [ solving ] ------------------------------------------------------------
c 
c time measured in process time since initialization
c 
c  seconds    reductions  redundant   irredundant
c          MB     restarts       trail       variables
c            level   conflicts       glue         remaining
c 
c * 17.77 1369  0 0   0    0    0  0% 0 1595422 2469 40%
c { 18.42 1416  0 0   0    0    0  0% 0 1595422 2469 40%
c i 19.20 1456 1084 0   0   15   14 36% 1 1595422 2459 40%
c i 19.26 1458 1020 0   0   16   14 35% 1 1595422 2447 40%
c i 20.02 1474 639 0   3   40   32 30% 4 1595422 2431 39%
c i 20.07 1474 454 0   4   56   32 26% 4 1595422 2418 39%
c i 22.22 1492 217 0  23  150  102 25% 16 1595422 2417 39%
c i 22.33 1492 203 0  27  165  113 25% 18 1595422 2416 39%
c i 22.58 1492 192 0  33  193  136 25% 20 1595422 2414 39%
c i 22.78 1492 180 0  43  239  168 25% 20 1595422 2412 39%
c i 22.91 1492 171 0  48  281  183 24% 20 1595422 2410 39%
c i 22.94 1492 170 0  48  291  188 25% 20 1595422 2406 39%
c i 22.97 1492 168 0  50  295  191 25% 20 1595422 2405 39%
c i 22.97 1492 168 0  50  298  192 25% 20 1595422 2403 39%
c - 26.47 1376 168 1  52  303  184 25% 21 123602 2403 39%
c i 26.69 1376 162 1  57  321  200 25% 22 123602 2402 39%
c i 26.70 1376 162 1  58  322  200 25% 22 123602 2401 39%
c i 26.88 1376 127 1  79  440  280 26% 23 123602 2400 39%
c i 26.89 1376 124 1  79  454  293 26% 22 123602 2399 39%
c i 26.89 1376 124 1  79  455  293 26% 22 123602 2398 39%
c 
c  seconds     reductions  redundant   irredundant
c          MB      restarts       trail       variables
c             level   conflicts       glue         remaining
c 
c i 26.91 1376 123 1  79  465  299 26% 23 123602 2396 39%
c i 26.92 1376 120 1  83  491  321 26% 23 123602 2395 39%
c i 26.92 1376 119 1  83  492  321 26% 23 123602 2394 39%
c i 27.02 1376 112 1  89  548  371 26% 23 123602 2393 39%
c i 27.03 1376 107 1  89  580  399 27% 22 123602 2392 39%
c i 27.04 1376 105 1  89  588  406 27% 22 123602 2391 39%
c i 27.04 1376 105 1  89  590  407 27% 22 123602 2390 39%
c i 27.04 1376 102 1  89  607  422 27% 22 123602 2389 39%
c i 27.05 1376 102 1  89  610  424 27% 22 123602 2388 39%
c i 27.08 1376 100 1  92  649  453 27% 22 123602 2387 39%
c i 27.09 1376 100 1  93  655  457 27% 22 123602 2386 39%
c i 27.10 1376 98 1  98  678  478 27% 23 123602 2385 39%
c i 27.14 1376 97 1 100  691  489 27% 22 123602 2384 39%
c i 27.14 1376 97 1 100  693  490 27% 22 123602 2383 39%
c i 27.16 1376 97 1 102  711  505 27% 23 123602 2382 39%
c i 27.17 1376 97 1 104  717  510 27% 23 123602 2381 39%
c i 27.26 1376 98 1 115  756  544 27% 24 123602 2380 39%
c i 27.30 1376 97 1 124  790  574 27% 25 123602 2379 39%
c i 27.37 1376 99 1 135  834  611 27% 28 123602 2378 39%
c i 27.37 1376 98 1 137  842  617 27% 28 123602 2377 39%
c 
c  seconds    reductions  redundant   irredundant
c          MB     restarts       trail       variables
c            level   conflicts       glue         remaining
c 
c i 27.42 1376 99 1 142  861  633 27% 29 123602 2376 39%
c i 27.50 1376 98 1 150  896  662 27% 30 123602 2375 39%
c - 27.88 1436 95 2 164  958  645 27% 30 123519 2375 39%
c i 27.92 1436 95 2 164  971  656 27% 30 123519 2374 39%
c i 27.92 1436 94 2 164  984  667 27% 30 123519 2373 39%
c i 27.95 1436 93 2 164 1000  682 27% 30 123519 2372 39%
c } 27.95 1436 93 2 164 1000  682 27% 30 123519 2372 39%
c [ 27.95 1436  0 2 164 1000  682  0% 0 123519 2372 39%
c O 27.96 1436 18 2 164 1002  684 25% 6 123519 2372 39%
c i 27.96 1436  4 2 164 1013  688 18% 2 123519 2336 38%
c i 27.96 1436  6 2 164 1018  692 22% 3 123519 2335 38%
c i 27.96 1436  6 2 164 1020  693 22% 4 123519 2334 38%
c i 27.96 1436  6 2 164 1021  693 23% 4 123519 2333 38%
c i 27.97 1436  6 2 164 1022  693 23% 3 123519 2332 38%
c i 27.97 1436  6 2 164 1023  693 23% 3 123519 2331 38%
c i 27.98 1436 12 2 164 1054  711 28% 10 123519 2330 38%
c i 27.98 1436 12 2 164 1062  717 28% 10 123519 2329 38%
c i 27.99 1436 12 2 164 1064  718 28% 10 123519 2328 38%
c i 27.99 1436 11 2 164 1071  717 29% 10 123519 2327 38%
c i 27.99 1436 11 2 164 1077  718 29% 10 123519 2326 38%
c 
c  seconds    reductions  redundant  irredundant
c          MB     restarts       trail      variables
c            level   conflicts       glue        remaining
c 
c i 27.99 1436 11 2 164 1080  716 29% 9 123519 2325 38%
c i 28.01 1436 14 2 164 1126  745 30% 12 123519 2324 38%
c i 28.02 1436 14 2 164 1156  758 30% 12 123519 2323 38%
c i 28.03 1436 14 2 164 1197  788 31% 12 123519 2322 38%
c i 28.04 1436 14 2 164 1259  824 31% 12 123519 2321 38%
c i 28.07 1436 14 2 164 1348  863 31% 12 123519 2320 38%
c i 28.11 1436 15 2 164 1464  926 31% 13 123519 2319 38%
c i 28.17 1436 15 2 164 1690 1022 31% 13 123519 2318 38%
c i 28.17 1436 15 2 164 1691 1022 31% 13 123519 2317 38%
c i 28.23 1436 15 2 164 1853 1113 31% 13 123519 2316 38%
c - 28.44 1430 15 3 164 1943  844 31% 13 122762 2316 38%
c ] 28.59 1430 16 3 165 2226 1017 31% 14 122762 2316 38%
c 1 28.59 1430 16 3 165 2226 1017 31% 14 122762 2316 38%
c 
c --- [ writing output ] -----------------------------------------------------
c 
c writing simplified CNF to DIMACS file 'simp/33.cubes258.adj.simp1'
c * 28.59 1430 16 3 165 2226 1017 31% 14 122762 2316 38%
c opening file to write 'simp/33.cubes258.adj.simp1'
c writing 'p cnf 6160 122762' header
c closing file 'simp/33.cubes258.adj.simp1'
c after writing 63612700 bytes 60.7 MB
c wrote 122762 clauses in 0.45 seconds process time
c 
c --- [ writing extension ] --------------------------------------------------
c 
c writing extension stack to 'simp/33.cubes258.adj.ext1'
c opening file to write 'simp/33.cubes258.adj.ext1'
c closing file 'simp/33.cubes258.adj.ext1'
c after writing 10344 bytes 0.0 MB
c wrote 700 witnesses in 0.00 seconds process time
c 
c --- [ result ] -------------------------------------------------------------
c 
s SATISFIABLE
c 
c --- [ run-time profiling ] -------------------------------------------------
c 
c process time taken by individual solving procedures
c (percentage relative to process time for solving)
c 
c        17.77  164.28% parse
c        10.82  100.00% search
c         9.53   88.07% unstable
c         0.65    6.04% lucky
c         0.64    5.88% stable
c         0.00    0.00% simplify
c   =================================
c        10.82   37.26% solve
c 
c last line shows process time for solving
c (percentage relative to total process time)
c 
c --- [ statistics ] ---------------------------------------------------------
c 
c chronological:               623        27.99 %  of conflicts
c conflicts:                  2226       205.80    per second
c decisions:                 24770      2290.04    per second
c fixed:                       700        11.36 %  of all variables
c learned:                    2142        96.23 %  per conflict
c learned_lits:             365854       100.00 %  learned literals
c minimized:                     0         0.00 %  learned literals
c shrunken:                 274973        75.16 %  learned literals
c minishrunken:              12544         3.43 %  learned literals
c propagations:             430400         0.04 M  per second
c reduced:                     358        16.08 %  per conflict
c rephased:                      1      2226.00    interval
c restarts:                    165        13.49    interval
c stabilizing:                   1        55.08 %  of conflicts
c subsumed:                    676         0.02 %  of all clauses
c 
c seconds are measured in process time for solving
c 
c --- [ resources ] ----------------------------------------------------------
c 
c total process time since initialization:        29.03    seconds
c total real time since initialization:           29.07    seconds
c maximum resident set size of process:         1492.75    MB
c 
c --- [ shutting down ] ------------------------------------------------------
c 
c exit 10
WARNING! DIMACS header mismatch: wrong number of variables.
============================[ Problem Statistics ]=============================
|                                                                             |
|  Number of variables:          6120                                         |
|  Number of clauses:          122762                                         |
|  Parse time:                   0.87 s                                       |
|  Simplification time:          0.02 s                                       |
|                                                                             |
============================[ Search Statistics ]====================================================
| Conflicts |          ORIGINAL         |          LEARNT          | Num Sols |      SUBGRAPHS      |
|           |    Vars  Clauses Literals |    Limit  Clauses Lit/Cl |          | Canonical Noncanon. |
=====================================================================================================
|       150 |    6028   122812 13564499 |     2000      150     56 |        0 |        27        50 |
|       353 |    6026   122865 13565659 |     2000      351     57 |        0 |        35       103 |
|       663 |    6023   122950 13567569 |     2000      658     61 |        0 |        48       188 |
|      1074 |    6019   123024 13568648 |     2000     1065     66 |        0 |        62       262 |
|      1718 |    6019   123162 13570751 |     2000     1709     69 |        0 |       102       400 |
|      2544 |    6019   123229 13571938 |     3595     1539     50 |        0 |       109       467 |
|      3870 |    6018   123416 13575425 |     3595     2864     78 |        0 |       169       654 |
|      5657 |    6018   123495 13576532 |     4996     2853     62 |        0 |       215       733 |
|      8478 |    6018   123754 13580142 |     6299     3177     57 |        0 |       307       992 |
|     12791 |    6018   124223 13587296 |     7558     4349     59 |        0 |       490      1461 |
|     19036 |    5965   124702 13592741 |     8782     6814     71 |        0 |       688      1940 |
=====================================================================================================
Number of solutions   : 0
Canonical subgraphs   : 962            (74 /sec)
          order  3    : 1              (166667 /sec)
          order  4    : 1              (500000 /sec)
          order  5    : 1              (250000 /sec)
          order  6    : 1              (55556 /sec)
          order  7    : 1              (7937 /sec)
          order  8    : 1              (3268 /sec)
          order  9    : 1              (1736 /sec)
          order 10    : 3              (981 /sec)
          order 11    : 8              (613 /sec)
          order 12    : 18             (403 /sec)
          order 13    : 44             (267 /sec)
          order 14    : 64             (182 /sec)
          order 15    : 60             (116 /sec)
          order 16    : 240            (82 /sec)
          order 17    : 264            (60 /sec)
          order 18    : 113            (57 /sec)
          order 19    : 70             (54 /sec)
          order 20    : 32             (55 /sec)
          order 21    : 39             (51 /sec)
          order 22    : 0              (-nan /sec)
Noncanonical subgraphs: 2703           (791 /sec)
          order  3    : 0              (-nan /sec)
          order  4    : 0              (-nan /sec)
          order  5    : 0              (-nan /sec)
          order  6    : 0              (-nan /sec)
          order  7    : 0              (-nan /sec)
          order  8    : 0              (-nan /sec)
          order  9    : 0              (-nan /sec)
          order 10    : 0              (-nan /sec)
          order 11    : 0              (-nan /sec)
          order 12    : 0              (-nan /sec)
          order 13    : 226            (12162 /sec)
          order 14    : 346            (8546 /sec)
          order 15    : 461            (3497 /sec)
          order 16    : 1346           (704 /sec)
          order 17    : 263            (606 /sec)
          order 18    : 12             (853 /sec)
          order 19    : 5              (1160 /sec)
          order 20    : 1              (586 /sec)
          order 21    : 1              (200 /sec)
Canonicity checking   : 13.0672 s
Noncanonicity checking: 3.41752 s
Total canonicity time : 16.4847 s
database reductions   : 7
restarts              : 96
conflicts             : 27381          (1152 /sec)
decisions             : 64923          (0.00 % random) (2731 /sec)
propagations          : 3271469        (137616 /sec)
conflict literals     : 2858741        (52.64 % deleted)
actual reward         : 0.115527
Memory used           : 90.00 MB
CPU time              : 23.7725 s

UNSATISFIABLE
